\* Inner_maximization *\
Maximize
OBJ: 75 norm_z_0 + 75 norm_z_1 + 118.5 norm_z_10 + 181.4 norm_z_11
 + 118.5 norm_z_12 + 181.4 norm_z_13 + 181.4 norm_z_14 + 181.4 norm_z_15
 + 181.4 norm_z_16 + 181.4 norm_z_17 + 118.5 norm_z_18 + 118.5 norm_z_19
 + 75 norm_z_2 + 118.5 norm_z_20 + 118.5 norm_z_21 + 75 norm_z_22
 + 75 norm_z_23 + 75 norm_z_3 + 75 norm_z_4 + 75 norm_z_5 + 75 norm_z_6
 + 75 norm_z_7 + 118.5 norm_z_8 + 118.5 norm_z_9
Subject To
_C1: norm_z_0 + norm_z_1 + norm_z_10 + norm_z_11 + norm_z_12 + norm_z_13
 + norm_z_14 + norm_z_15 + norm_z_16 + norm_z_17 + norm_z_18 + norm_z_19
 + norm_z_2 + norm_z_20 + norm_z_21 + norm_z_22 + norm_z_23 + norm_z_3
 + norm_z_4 + norm_z_5 + norm_z_6 + norm_z_7 + norm_z_8 + norm_z_9 <= 12
Bounds
 norm_z_0 <= 1
 norm_z_1 <= 1
 norm_z_10 <= 1
 norm_z_11 <= 1
 norm_z_12 <= 1
 norm_z_13 <= 1
 norm_z_14 <= 1
 norm_z_15 <= 1
 norm_z_16 <= 1
 norm_z_17 <= 1
 norm_z_18 <= 1
 norm_z_19 <= 1
 norm_z_2 <= 1
 norm_z_20 <= 1
 norm_z_21 <= 1
 norm_z_22 <= 1
 norm_z_23 <= 1
 norm_z_3 <= 1
 norm_z_4 <= 1
 norm_z_5 <= 1
 norm_z_6 <= 1
 norm_z_7 <= 1
 norm_z_8 <= 1
 norm_z_9 <= 1
End
